(set-logic QF_S)
(declare-fun var0 () Int)
(declare-fun var1 () Int)
(declare-fun var2 () String)
(declare-fun var3 () String)
(declare-fun var4 () String)
(declare-fun var5 () String)
(declare-fun var6 () Int)
(assert (<= var0 var1))
(assert (str.prefixof var2 var3))
(assert (>= (str.to.int var4) (str.indexof var5 var3 var6)))
(assert (<= (str.to.int (str.replace var2 var5 "}0OF")) (str.to.int var2)))
(check-sat)